
Gurobi 9.5.0 (linux64) logging started Wed Nov  8 21:37:47 2023

Set parameter LogFile to value "/lustre1/scratch/348/vsc34888/JointResearch/05.Models/06.Benchmarking/G.Representative_days_based_on_Line_Benefit_NN_OC_fy_2/RTS24_ByStages_nc100/openStarNet_RTS24_ByStages_nc100.log"
Set parameter Method to value 2
Set parameter MIPFocus to value 1
Set parameter Presolve to value 2
Set parameter RINS to value 100
Set parameter MIPGap to value 0.01
Set parameter Threads to value 36
Set parameter TimeLimit to value 604800
Set parameter IterationLimit to value 760000000
Gurobi Optimizer version 9.5.0 build v9.5.0rc5 (linux64)
Thread count: 36 physical cores, 36 logical processors, using up to 36 threads
Optimize a model with 44503 rows, 25773 columns and 122910 nonzeros
Model fingerprint: 0x8defd86d
Variable types: 25734 continuous, 39 integer (39 binary)
Coefficient statistics:
  Matrix range     [1e-03, 2e+03]
  Objective range  [1e+00, 1e+00]
  Bounds range     [4e-04, 3e+00]
  RHS range        [4e-04, 3e+00]
Presolve removed 21703 rows and 11032 columns
Presolve time: 0.25s
Presolved: 22800 rows, 14741 columns, 79402 nonzeros
Variable types: 14702 continuous, 39 integer (39 binary)
Found heuristic solution: objective 152.5876284
Root relaxation presolved: 22800 rows, 14741 columns, 79402 nonzeros

Root barrier log...

Ordering time: 0.01s

Barrier statistics:
 Dense cols : 39
 AA' NZ     : 1.687e+05
 Factor NZ  : 5.429e+05 (roughly 20 MB of memory)
 Factor Ops : 1.624e+07 (less than 1 second per iteration)
 Threads    : 36

                  Objective                Residual
Iter       Primal          Dual         Primal    Dual     Compl     Time
   0   6.32372007e+05 -1.74076304e+08  4.50e+00 3.96e+02  1.08e+04     1s
   1   7.55240535e+04 -4.73368569e+07  4.17e-01 1.02e-08  1.40e+03     1s
   2   2.55780595e+04 -6.99189555e+06  1.23e-02 1.94e-09  1.54e+02     1s
   3   1.91971042e+04 -2.94014851e+05  1.26e-12 1.17e-10  6.74e+00     1s
   4   4.30781529e+03 -5.91751323e+04  8.70e-13 1.99e-11  1.37e+00     1s
   5   1.67412357e+03 -1.51915466e+04  6.11e-13 4.67e-12  3.63e-01     1s
   6   7.23723968e+02 -4.51010299e+03  5.22e-13 1.28e-12  1.13e-01     1s
   7   4.18752483e+02 -1.53250210e+03  4.51e-13 1.82e-12  4.20e-02     1s
   8   2.43092081e+02 -3.36302680e+02  2.56e-13 2.73e-12  1.25e-02     1s
   9   1.70313705e+02 -8.11744235e+01  2.82e-13 1.82e-12  5.41e-03     1s
  10   1.22118463e+02  3.43747898e+01  2.99e-13 9.09e-13  1.89e-03     1s
  11   1.01900672e+02  7.21851989e+01  4.71e-13 9.09e-13  6.39e-04     1s
  12   9.70711352e+01  8.56366557e+01  4.95e-12 1.82e-12  2.46e-04     1s
  13   9.54269794e+01  8.77054170e+01  3.26e-12 9.09e-13  1.66e-04     1s
  14   9.49363771e+01  8.89493539e+01  5.22e-12 1.82e-12  1.29e-04     1s
  15   9.35834792e+01  9.07030048e+01  7.99e-12 1.82e-12  6.20e-05     1s
  16   9.30397194e+01  9.13207971e+01  1.03e-11 9.09e-13  3.70e-05     1s
  17   9.29284455e+01  9.17704320e+01  9.25e-12 9.09e-13  2.49e-05     1s
  18   9.25045772e+01  9.19406930e+01  3.04e-11 1.82e-12  1.21e-05     1s
  19   9.24408262e+01  9.21044755e+01  1.86e-11 9.09e-13  7.24e-06     1s
  20   9.23848833e+01  9.23023282e+01  2.97e-11 1.82e-12  1.78e-06     1s
  21   9.23597380e+01  9.23306824e+01  1.93e-10 9.09e-13  6.25e-07     1s
  22   9.23483764e+01  9.23409757e+01  5.77e-11 9.09e-13  1.59e-07     1s
  23   9.23456664e+01  9.23433176e+01  5.65e-11 9.09e-13  5.05e-08     1s
  24   9.23448825e+01  9.23434874e+01  1.03e-09 9.09e-13  3.00e-08     1s
  25   9.23448623e+01  9.23447237e+01  1.14e-09 1.82e-12  2.98e-09     1s
  26   9.23448464e+01  9.23448462e+01  2.80e-09 1.82e-12  4.41e-12     1s

Barrier solved model in 26 iterations and 0.83 seconds (0.88 work units)
Optimal objective 9.23448464e+01


Root relaxation: objective 9.234485e+01, 1852 iterations, 0.51 seconds (0.42 work units)

    Nodes    |    Current Node    |     Objective Bounds      |     Work
 Expl Unexpl |  Obj  Depth IntInf | Incumbent    BestBd   Gap | It/Node Time

     0     0   92.34485    0   13  152.58763   92.34485  39.5%     -    1s
H    0     0                     123.0616144   92.34485  25.0%     -    1s
     0     0   94.79171    0   12  123.06161   94.79171  23.0%     -    2s
H    0     0                     108.1383566   94.79171  12.3%     -    2s
     0     0   94.91737    0   12  108.13836   94.91737  12.2%     -    2s
     0     0   94.91913    0   12  108.13836   94.91913  12.2%     -    2s
H    0     0                     107.4389069   95.82718  10.8%     -    3s
     0     0   95.82718    0    9  107.43891   95.82718  10.8%     -    3s
     0     0   95.87560    0   10  107.43891   95.87560  10.8%     -    3s
     0     0   95.87560    0   10  107.43891   95.87560  10.8%     -    3s
     0     0   96.05410    0   10  107.43891   96.05410  10.6%     -    3s
     0     0   96.07568    0   10  107.43891   96.07568  10.6%     -    4s
     0     0   96.07591    0   10  107.43891   96.07591  10.6%     -    4s
     0     0   96.08579    0   11  107.43891   96.08579  10.6%     -    4s
     0     0   96.08618    0   11  107.43891   96.08618  10.6%     -    5s
     0     0   96.08626    0   11  107.43891   96.08626  10.6%     -    5s
     0     0   96.08922    0   11  107.43891   96.08922  10.6%     -    5s
H    0     0                     103.7180422   96.08922  7.36%     -   12s
     0     2   96.08922    0   11  103.71804   96.08922  7.36%     -   13s
    13    14   98.00585    4    8  103.71804   97.68843  5.81%   792   15s

Cutting planes:
  Gomory: 6
  Implied bound: 18
  MIR: 629

Explored 178 nodes (53217 simplex iterations) in 17.56 seconds (20.60 work units)
Thread count was 36 (of 36 available processors)

Solution count 5: 103.718 107.439 108.138 ... 152.588

Optimal solution found (tolerance 1.00e-02)
Best objective 1.037180422233e+02, best bound 1.035829493362e+02, gap 0.1303%

Gurobi 9.5.0 (linux64) logging started Wed Nov  8 21:38:11 2023

Set parameter LogFile to value "/lustre1/scratch/348/vsc34888/JointResearch/05.Models/06.Benchmarking/G.Representative_days_based_on_Line_Benefit_NN_OC_fy_2/RTS24_ByStages_nc100/openStarNet_RTS24_ByStages_nc100.log"
Set parameter Method to value 2
Set parameter MIPFocus to value 1
Set parameter Presolve to value 2
Set parameter RINS to value 100
Set parameter MIPGap to value 0.01
Set parameter Threads to value 36
Set parameter TimeLimit to value 604800
Set parameter IterationLimit to value 760000000
No parameters matching 'relax_integrality' found
Gurobi Optimizer version 9.5.0 build v9.5.0rc5 (linux64)
Thread count: 36 physical cores, 36 logical processors, using up to 36 threads
Optimize a model with 44503 rows, 25734 columns and 107271 nonzeros
Model fingerprint: 0x52c259e7
Coefficient statistics:
  Matrix range     [1e-03, 2e+03]
  Objective range  [1e+00, 1e+00]
  Bounds range     [4e-04, 3e+00]
  RHS range        [4e-04, 3e+01]
Presolve removed 35207 rows and 12040 columns
Presolve time: 0.05s
Presolved: 9296 rows, 13894 columns, 34286 nonzeros

Ordering time: 0.00s

Barrier statistics:
 AA' NZ     : 2.387e+04
 Factor NZ  : 1.020e+05 (roughly 8 MB of memory)
 Factor Ops : 1.550e+06 (less than 1 second per iteration)
 Threads    : 36

                  Objective                Residual
Iter       Primal          Dual         Primal    Dual     Compl     Time
   0   1.13826449e+06 -2.23164854e+08  7.65e+00 9.64e+01  2.17e+04     0s
   1   1.32748370e+05 -3.62246501e+07  7.56e-01 5.53e-12  2.30e+03     0s
   2   3.37856677e+04 -4.64401856e+06  5.62e-02 4.08e-12  2.19e+02     0s
   3   2.19634401e+04 -7.52477497e+05  2.42e-03 2.49e-12  3.27e+01     0s
   4   1.13459960e+04 -9.60166079e+04  3.20e-05 1.30e-12  4.50e+00     0s
   5   4.05441698e+03 -2.47721878e+04  6.18e-06 1.82e-12  1.21e+00     0s
   6   1.54581714e+03 -6.45009416e+03  1.76e-06 4.55e-13  3.35e-01     0s
   7   6.31605659e+02 -1.53561565e+03  5.02e-07 9.09e-13  9.08e-02     0s
   8   3.67070298e+02 -4.75027881e+02  2.13e-07 4.55e-13  3.53e-02     0s
   9   1.85161564e+02 -7.75871715e+01  5.41e-08 9.09e-13  1.10e-02     0s
  10   1.26155445e+02  7.01051127e+01  1.22e-08 6.82e-13  2.35e-03     0s
  11   1.10094094e+02  8.80060153e+01  3.04e-09 9.09e-13  9.25e-04     0s
  12   1.07071433e+02  9.87427700e+01  1.55e-09 9.09e-13  3.49e-04     0s
  13   1.04900437e+02  1.01783862e+02  5.28e-10 9.09e-13  1.31e-04     0s
  14   1.04066014e+02  1.03188706e+02  1.50e-10 4.55e-13  3.68e-05     0s
  15   1.03773921e+02  1.03524539e+02  4.60e-11 9.09e-13  1.04e-05     0s
  16   1.03723194e+02  1.03706869e+02  5.56e-11 4.55e-13  6.84e-07     0s
  17   1.03718561e+02  1.03717051e+02  4.48e-11 9.09e-13  6.33e-08     0s
  18   1.03718047e+02  1.03718028e+02  3.21e-11 4.55e-13  7.65e-10     0s
  19   1.03718042e+02  1.03718042e+02  1.84e-10 9.09e-13  7.65e-13     0s
  20   1.03718042e+02  1.03718042e+02  5.11e-12 9.09e-13  7.65e-16     0s

Barrier solved model in 20 iterations and 0.20 seconds (0.14 work units)
Optimal objective 1.03718042e+02

Crossover log...

    1191 DPushes remaining with DInf 0.0000000e+00                 0s
       0 DPushes remaining with DInf 0.0000000e+00                 0s

     437 PPushes remaining with PInf 0.0000000e+00                 0s
       0 PPushes remaining with PInf 0.0000000e+00                 0s

  Push phase complete: Pinf 0.0000000e+00, Dinf 3.9295237e-13      0s

Iteration    Objective       Primal Inf.    Dual Inf.      Time
     466    1.0371804e+02   0.000000e+00   0.000000e+00      0s

Use crossover to convert LP symmetric solution to basic solution...
Crossover log...

       0 DPushes remaining with DInf 0.0000000e+00                 0s

     269 PPushes remaining with PInf 0.0000000e+00                 0s
       0 PPushes remaining with PInf 0.0000000e+00                 0s

  Push phase complete: Pinf 0.0000000e+00, Dinf 5.5443598e-13      0s

Iteration    Objective       Primal Inf.    Dual Inf.      Time
     758    1.0371804e+02   0.000000e+00   0.000000e+00      0s

Solved in 758 iterations and 0.30 seconds (0.19 work units)
Optimal objective  1.037180422e+02
